100
1935
20
98
71
40
87
30
50
96
1
75
57
1
25
53
39
15
39
61
2
48
52
0 1
0 3
0 7
0 14
0 15
0 16
0 21
0 22
0 23
0 24
0 25
0 26
0 29
0 34
0 35
0 36
0 42
0 46
0 47
0 50
0 52
0 53
0 54
0 56
0 57
0 60
0 63
0 64
0 66
0 68
0 69
0 73
0 80
0 82
0 84
0 85
0 92
0 93
0 98
0 99
1 4
1 5
1 6
1 8
1 10
1 14
1 15
1 19
1 20
1 23
1 24
1 26
1 27
1 31
1 33
1 35
1 36
1 39
1 44
1 45
1 50
1 51
1 53
1 54
1 56
1 57
1 64
1 67
1 68
1 69
1 70
1 77
1 81
1 88
1 92
2 5
2 7
2 8
2 9
2 10
2 18
2 20
2 21
2 24
2 25
2 29
2 30
2 31
2 32
2 34
2 36
2 39
2 44
2 46
2 47
2 49
2 50
2 51
2 52
2 54
2 55
2 56
2 57
2 60
2 61
2 62
2 64
2 69
2 70
2 72
2 73
2 74
2 76
2 79
2 81
2 84
2 88
2 89
2 91
2 92
2 94
2 98
2 99
3 5
3 6
3 10
3 13
3 14
3 15
3 17
3 19
3 21
3 23
3 25
3 29
3 30
3 31
3 32
3 33
3 35
3 40
3 44
3 46
3 48
3 54
3 55
3 56
3 57
3 58
3 64
3 66
3 70
3 71
3 72
3 76
3 80
3 81
3 82
3 91
3 95
3 98
3 99
4 5
4 7
4 10
4 14
4 18
4 24
4 26
4 31
4 35
4 36
4 38
4 39
4 40
4 42
4 43
4 44
4 45
4 46
4 49
4 50
4 53
4 56
4 60
4 61
4 62
4 64
4 67
4 68
4 73
4 74
4 76
4 80
4 81
4 82
4 85
4 86
4 94
4 95
4 98
5 8
5 12
5 13
5 15
5 19
5 23
5 25
5 32
5 35
5 36
5 38
5 39
5 40
5 42
5 43
5 45
5 46
5 53
5 54
5 55
5 60
5 63
5 64
5 66
5 67
5 68
5 70
5 73
5 76
5 77
5 78
5 80
5 81
5 89
5 90
5 91
5 99
6 13
6 14
6 18
6 23
6 31
6 35
6 41
6 43
6 44
6 46
6 54
6 55
6 60
6 65
6 67
6 69
6 70
6 71
6 73
6 76
6 77
6 84
6 85
6 88
6 89
6 93
7 12
7 13
7 14
7 20
7 21
7 22
7 25
7 26
7 27
7 28
7 29
7 30
7 31
7 38
7 39
7 40
7 46
7 47
7 48
7 49
7 50
7 56
7 61
7 62
7 65
7 70
7 71
7 72
7 80
7 84
7 87
7 88
7 91
7 95
7 99
8 9
8 10
8 16
8 17
8 18
8 23
8 28
8 33
8 36
8 37
8 38
8 39
8 43
8 44
8 45
8 48
8 53
8 56
8 58
8 60
8 62
8 63
8 64
8 65
8 68
8 70
8 71
8 76
8 77
8 80
8 81
8 86
8 87
8 95
8 97
8 99
9 11
9 14
9 16
9 25
9 29
9 32
9 33
9 35
9 36
9 37
9 38
9 39
9 40
9 43
9 45
9 47
9 48
9 49
9 56
9 60
9 69
9 70
9 71
9 76
9 78
9 82
9 86
9 91
10 11
10 16
10 17
10 18
10 23
10 28
10 31
10 35
10 36
10 38
10 44
10 46
10 47
10 48
10 51
10 54
10 55
10 57
10 58
10 60
10 61
10 67
10 72
10 75
10 76
10 78
10 80
10 81
10 82
10 84
10 87
10 97
10 98
11 13
11 15
11 17
11 27
11 28
11 31
11 34
11 35
11 37
11 43
11 47
11 48
11 54
11 61
11 63
11 68
11 70
11 72
11 76
11 79
11 82
11 83
11 84
11 86
11 90
11 92
11 94
11 95
11 96
11 97
12 14
12 16
12 18
12 22
12 23
12 29
12 30
12 31
12 39
12 40
12 43
12 44
12 45
12 46
12 47
12 48
12 51
12 52
12 56
12 57
12 59
12 61
12 62
12 66
12 69
12 75
12 76
12 88
12 90
12 95
12 99
13 22
13 25
13 29
13 30
13 32
13 33
13 34
13 39
13 41
13 43
13 45
13 48
13 53
13 54
13 59
13 61
13 63
13 65
13 68
13 74
13 75
13 80
13 81
13 82
13 83
13 86
13 87
13 90
13 93
13 94
13 95
13 97
13 98
13 99
14 18
14 21
14 23
14 25
14 28
14 29
14 31
14 34
14 37
14 38
14 40
14 42
14 43
14 44
14 45
14 46
14 47
14 48
14 49
14 51
14 52
14 53
14 57
14 60
14 62
14 63
14 69
14 70
14 76
14 91
14 92
14 93
14 95
14 97
14 98
15 17
15 18
15 19
15 23
15 26
15 27
15 29
15 33
15 40
15 43
15 46
15 48
15 49
15 51
15 53
15 56
15 57
15 59
15 60
15 62
15 64
15 69
15 70
15 71
15 73
15 76
15 78
15 79
15 80
15 81
15 84
15 92
15 93
15 94
15 98
15 99
16 18
16 19
16 21
16 24
16 26
16 27
16 31
16 35
16 36
16 39
16 43
16 47
16 50
16 51
16 52
16 59
16 60
16 64
16 68
16 69
16 72
16 75
16 78
16 81
16 82
16 87
16 91
16 93
16 94
16 96
16 97
16 99
17 18
17 22
17 23
17 26
17 28
17 31
17 32
17 33
17 34
17 47
17 48
17 50
17 51
17 61
17 62
17 65
17 66
17 69
17 71
17 72
17 74
17 77
17 78
17 79
17 81
17 83
17 89
17 97
17 98
17 99
18 25
18 27
18 29
18 30
18 34
18 37
18 40
18 46
18 47
18 51
18 55
18 61
18 62
18 73
18 75
18 77
18 79
18 80
18 82
18 85
18 89
18 90
18 91
18 92
18 94
18 95
18 97
18 98
18 99
19 21
19 24
19 25
19 30
19 31
19 32
19 34
19 40
19 42
19 43
19 49
19 51
19 53
19 57
19 58
19 60
19 63
19 64
19 67
19 68
19 70
19 71
19 72
19 82
19 84
19 88
19 94
19 95
19 96
19 98
20 25
20 29
20 30
20 34
20 36
20 40
20 41
20 45
20 47
20 51
20 53
20 54
20 59
20 60
20 62
20 64
20 66
20 68
20 70
20 71
20 74
20 76
20 81
20 86
20 89
20 91
20 95
20 96
20 98
20 99
21 25
21 31
21 34
21 39
21 43
21 45
21 52
21 56
21 58
21 60
21 63
21 64
21 65
21 68
21 70
21 71
21 72
21 73
21 75
21 77
21 80
21 81
21 85
21 90
21 96
21 99
22 24
22 27
22 33
22 34
22 37
22 38
22 42
22 43
22 44
22 45
22 47
22 49
22 51
22 54
22 56
22 62
22 63
22 65
22 66
22 70
22 78
22 79
22 82
22 84
22 86
22 87
22 91
22 92
22 94
23 25
23 26
23 29
23 31
23 38
23 39
23 45
23 51
23 54
23 55
23 57
23 58
23 59
23 61
23 62
23 69
23 70
23 71
23 77
23 78
23 79
23 81
23 85
23 91
23 93
23 96
23 97
23 98
24 26
24 33
24 35
24 39
24 40
24 42
24 44
24 53
24 54
24 56
24 57
24 58
24 65
24 66
24 69
24 72
24 73
24 74
24 75
24 76
24 77
24 78
24 81
24 89
24 90
24 95
24 96
24 99
25 27
25 29
25 30
25 32
25 35
25 36
25 39
25 41
25 42
25 44
25 48
25 52
25 66
25 69
25 77
25 78
25 80
25 82
25 85
25 91
25 95
25 97
25 98
26 27
26 29
26 30
26 37
26 40
26 41
26 44
26 45
26 53
26 54
26 55
26 59
26 61
26 64
26 66
26 73
26 78
26 79
26 84
26 85
26 86
26 90
26 91
26 96
26 98
27 31
27 32
27 33
27 35
27 36
27 37
27 39
27 40
27 41
27 46
27 47
27 48
27 52
27 56
27 57
27 58
27 61
27 63
27 64
27 69
27 72
27 74
27 76
27 81
27 87
27 88
27 94
28 31
28 36
28 37
28 39
28 41
28 42
28 43
28 44
28 45
28 51
28 52
28 54
28 56
28 59
28 60
28 61
28 62
28 65
28 66
28 67
28 72
28 73
28 76
28 77
28 78
28 79
28 83
28 84
28 86
28 87
28 88
28 90
28 93
28 94
28 95
29 30
29 34
29 36
29 38
29 39
29 40
29 45
29 47
29 50
29 51
29 54
29 59
29 63
29 65
29 69
29 70
29 73
29 74
29 76
29 77
29 83
29 90
29 91
29 92
29 93
29 95
29 96
29 99
30 33
30 37
30 38
30 39
30 40
30 41
30 43
30 45
30 46
30 49
30 51
30 53
30 54
30 56
30 58
30 59
30 63
30 64
30 66
30 67
30 70
30 72
30 73
30 74
30 76
30 78
30 80
30 84
30 86
30 91
30 93
30 94
30 97
30 99
31 32
31 33
31 34
31 35
31 39
31 40
31 41
31 43
31 44
31 45
31 52
31 58
31 61
31 62
31 66
31 67
31 68
31 71
31 74
31 78
31 82
31 83
31 84
31 86
31 89
31 90
31 93
31 94
31 96
31 99
32 33
32 35
32 37
32 47
32 49
32 50
32 51
32 54
32 56
32 58
32 59
32 70
32 71
32 72
32 73
32 74
32 75
32 78
32 89
32 91
32 92
32 94
32 95
32 96
32 97
32 98
33 34
33 35
33 38
33 39
33 40
33 41
33 42
33 53
33 54
33 56
33 57
33 58
33 60
33 61
33 63
33 64
33 66
33 68
33 69
33 71
33 72
33 74
33 77
33 80
33 84
33 86
33 89
33 90
33 91
33 92
33 93
33 96
33 99
34 37
34 41
34 42
34 44
34 46
34 47
34 48
34 56
34 58
34 59
34 62
34 64
34 67
34 68
34 70
34 76
34 78
34 83
34 84
34 85
34 87
34 88
34 89
34 91
34 92
34 95
34 97
35 40
35 44
35 45
35 46
35 49
35 50
35 55
35 57
35 58
35 59
35 60
35 62
35 65
35 66
35 67
35 68
35 69
35 73
35 76
35 89
35 92
35 95
35 96
35 97
36 37
36 39
36 42
36 43
36 45
36 47
36 49
36 51
36 52
36 54
36 55
36 56
36 57
36 60
36 64
36 65
36 70
36 72
36 74
36 75
36 78
36 79
36 80
36 82
36 83
36 86
36 87
36 90
36 91
36 94
37 47
37 49
37 50
37 51
37 54
37 58
37 59
37 60
37 61
37 63
37 64
37 65
37 68
37 69
37 71
37 72
37 73
37 75
37 76
37 78
37 80
37 81
37 82
37 88
37 89
37 90
37 91
37 92
37 94
37 95
38 39
38 43
38 44
38 47
38 51
38 52
38 58
38 60
38 62
38 66
38 70
38 75
38 83
38 87
38 90
38 94
38 98
38 99
39 42
39 43
39 44
39 45
39 46
39 47
39 48
39 49
39 51
39 52
39 55
39 60
39 64
39 68
39 71
39 72
39 73
39 74
39 75
39 81
39 84
39 88
39 93
39 96
39 98
40 44
40 46
40 49
40 51
40 54
40 55
40 56
40 57
40 58
40 60
40 62
40 65
40 66
40 68
40 69
40 74
40 75
40 76
40 79
40 83
40 87
40 88
40 91
40 92
40 95
40 97
40 98
41 45
41 49
41 50
41 55
41 61
41 64
41 67
41 70
41 73
41 75
41 76
41 79
41 81
41 85
41 91
41 98
42 43
42 44
42 47
42 49
42 52
42 53
42 56
42 58
42 59
42 60
42 61
42 63
42 65
42 66
42 70
42 74
42 75
42 78
42 82
42 84
42 89
42 90
42 91
42 92
42 93
42 95
42 98
43 44
43 45
43 46
43 50
43 51
43 54
43 57
43 59
43 60
43 64
43 72
43 78
43 79
43 81
43 83
43 89
43 93
43 94
44 48
44 50
44 52
44 55
44 57
44 59
44 60
44 61
44 66
44 67
44 68
44 69
44 70
44 76
44 77
44 78
44 85
44 86
44 88
44 89
44 90
44 93
44 94
44 99
45 47
45 48
45 50
45 51
45 52
45 53
45 54
45 56
45 57
45 60
45 61
45 66
45 67
45 68
45 79
45 80
45 82
45 84
45 86
45 87
45 88
45 93
45 99
46 49
46 50
46 53
46 54
46 55
46 56
46 57
46 61
46 63
46 68
46 73
46 77
46 78
46 81
46 83
46 86
46 89
46 90
46 91
46 96
46 97
46 98
47 48
47 50
47 52
47 57
47 58
47 59
47 61
47 62
47 72
47 74
47 75
47 85
47 87
47 88
47 89
47 92
47 93
47 94
47 96
47 97
48 49
48 50
48 51
48 53
48 57
48 59
48 60
48 61
48 64
48 65
48 71
48 73
48 74
48 76
48 77
48 78
48 80
48 82
48 83
48 84
48 88
48 90
48 91
48 94
48 95
49 50
49 53
49 58
49 59
49 62
49 65
49 66
49 67
49 68
49 71
49 74
49 76
49 79
49 84
49 87
49 89
49 95
49 96
50 55
50 58
50 64
50 66
50 67
50 68
50 71
50 73
50 81
50 82
50 84
50 85
50 86
50 88
50 89
50 90
50 91
50 92
50 93
50 95
51 53
51 54
51 57
51 63
51 65
51 74
51 75
51 77
51 78
51 80
51 81
51 82
51 84
51 85
51 86
51 90
51 91
51 95
52 54
52 56
52 59
52 60
52 64
52 66
52 70
52 77
52 81
52 83
52 91
52 96
52 97
52 98
53 55
53 56
53 58
53 59
53 63
53 66
53 67
53 68
53 71
53 73
53 74
53 76
53 77
53 79
53 80
53 87
54 60
54 61
54 63
54 64
54 67
54 69
54 71
54 73
54 76
54 78
54 82
54 87
54 89
54 92
54 97
54 98
55 57
55 58
55 59
55 62
55 63
55 65
55 71
55 77
55 82
55 83
55 86
55 87
55 89
55 94
55 95
55 97
56 57
56 64
56 67
56 72
56 73
56 78
56 83
56 87
56 94
56 99
57 58
57 59
57 61
57 64
57 66
57 68
57 70
57 72
57 74
57 77
57 82
57 83
57 84
57 86
57 92
57 93
57 95
57 98
58 59
58 61
58 64
58 67
58 68
58 72
58 76
58 82
58 89
58 90
58 92
58 93
58 98
59 62
59 64
59 66
59 73
59 76
59 80
59 81
59 82
59 83
59 87
59 88
59 90
59 94
59 97
59 99
60 61
60 65
60 69
60 71
60 80
60 82
60 83
60 84
60 86
60 87
60 88
60 89
60 92
60 95
60 97
61 63
61 64
61 67
61 71
61 73
61 74
61 75
61 76
61 78
61 80
61 81
61 83
61 84
61 87
61 88
61 89
61 91
61 93
61 97
61 98
62 64
62 73
62 79
62 82
62 83
62 86
62 87
62 88
62 92
63 66
63 67
63 73
63 76
63 78
63 79
63 83
63 86
63 87
63 90
63 91
63 96
64 65
64 66
64 70
64 71
64 73
64 74
64 79
64 86
64 90
64 91
64 95
64 96
64 97
64 98
65 70
65 71
65 74
65 75
65 76
65 80
65 87
65 92
65 94
65 97
65 98
66 68
66 69
66 70
66 72
66 73
66 74
66 75
66 77
66 79
66 80
66 83
66 86
66 88
66 93
66 95
66 96
67 71
67 74
67 76
67 83
67 87
67 88
67 89
67 92
67 96
67 97
67 98
68 69
68 75
68 80
68 81
68 82
68 86
68 87
68 93
68 94
68 96
69 70
69 76
69 77
69 80
69 82
69 87
69 90
69 91
69 93
69 98
69 99
70 71
70 82
70 89
70 95
70 96
70 97
71 73
71 74
71 75
71 83
71 85
71 90
71 91
71 92
71 93
71 96
71 99
72 74
72 75
72 78
72 79
72 80
72 82
72 85
72 86
72 87
72 89
72 90
72 91
72 94
73 74
73 75
73 78
73 80
73 82
73 85
73 86
73 90
73 93
73 94
73 96
73 97
73 98
74 76
74 77
74 86
74 87
74 88
74 91
74 94
74 95
74 96
74 98
74 99
75 78
75 80
75 82
75 83
75 85
75 91
75 93
75 94
75 95
75 96
75 97
76 77
76 78
76 82
76 84
76 85
76 86
76 87
76 90
76 92
76 94
76 95
76 98
77 79
77 82
77 84
77 85
77 86
77 88
77 89
77 91
77 92
77 96
77 97
77 99
78 79
78 80
78 85
78 86
78 87
78 89
78 91
78 93
78 94
78 96
78 99
79 80
79 81
79 82
79 83
79 89
79 93
80 81
80 83
80 84
80 85
80 87
80 95
80 98
81 87
81 89
81 90
81 92
81 93
81 96
82 85
82 87
82 91
82 92
82 95
83 84
83 88
83 90
83 92
83 94
83 97
84 85
84 86
84 87
84 88
84 89
84 90
84 93
84 94
84 96
84 99
85 87
85 88
85 89
85 90
85 91
85 92
85 94
85 95
85 96
86 89
86 90
86 91
86 93
86 94
86 98
86 99
87 93
87 96
87 98
87 99
88 93
88 96
88 99
89 92
89 93
89 97
89 98
90 91
90 92
90 93
90 94
90 96
90 97
90 99
91 92
91 94
91 96
91 99
92 93
92 97
92 99
93 98
93 99
94 95
94 99
95 96
95 97
96 97
96 98
97 98
98 99
96 75 39 65 25
69 36 24 12 89
60 28 81 19 86
92 35 67 49 30
22 90 54 9 59
27 5 99 55 57
87 40 76 2 71
78 16 48 42 77
29 6 62 26 0
85 79 88 10 32
13 52 7 21 98
74 43 93 20 23
72 82 58 11 83
44 17 31 68 14
37 95 34 56 51
3 80 41 8 64
94 73 33 38 84
47 4 15 53 46
63 91 66 97 61
45 70 18 1 50
